10
10
231589
0
0
69 55 54 49 43 40 52 44 42 41
1
0
67 51 51 49 43 37 47 41 40 48
2
0
71 56 54 49 43 39 50 44 44 44
3
0
72 53 56 49 41 41 49 45 39 45
4
0
71 54 52 45 41 38 47 43 38 44
5
0
70 49 53 45 46 39 47 49 41 42
6
0
74 58 55 47 38 42 50 41 37 43
7
0
69 54 56 48 40 42 50 42 40 45
8
0
69 53 54 46 43 38 46 41 43 47
9
0
72 50 51 48 42 37 48 43 41 47
